Version identifier: 22.1.0.0 | 2022-03-09 | 1a383f8ce
CPXPARAM_Threads                                 1
CPXPARAM_MIP_Strategy_VariableSelect             3
CPXPARAM_TimeLimit                               599.99661045899995
Found incumbent of value 0.000000 after 0.00 sec. (0.48 ticks)

Root node processing (before b&c):
  Real time             =    0.00 sec. (0.54 ticks)
Sequential b&c:
  Real time             =    0.00 sec. (0.00 ticks)
                          ------------
Total (root+branch&cut) =    0.00 sec. (0.54 ticks)
Version identifier: 22.1.0.0 | 2022-03-09 | 1a383f8ce
CPXPARAM_Threads                                 1
CPXPARAM_MIP_Strategy_VariableSelect             3
CPXPARAM_TimeLimit                               599.97576866099996
Found incumbent of value 0.000000 after 0.00 sec. (0.50 ticks)

Root node processing (before b&c):
  Real time             =    0.00 sec. (0.57 ticks)
Sequential b&c:
  Real time             =    0.00 sec. (0.00 ticks)
                          ------------
Total (root+branch&cut) =    0.00 sec. (0.57 ticks)
Version identifier: 22.1.0.0 | 2022-03-09 | 1a383f8ce
CPXPARAM_Threads                                 1
CPXPARAM_MIP_Strategy_VariableSelect             3
CPXPARAM_TimeLimit                               599.95576842499997
Found incumbent of value 0.000000 after 0.00 sec. (0.51 ticks)

Root node processing (before b&c):
  Real time             =    0.00 sec. (0.58 ticks)
Sequential b&c:
  Real time             =    0.00 sec. (0.00 ticks)
                          ------------
Total (root+branch&cut) =    0.00 sec. (0.58 ticks)
Version identifier: 22.1.0.0 | 2022-03-09 | 1a383f8ce
CPXPARAM_Threads                                 1
CPXPARAM_MIP_Strategy_VariableSelect             3
CPXPARAM_TimeLimit                               599.93545671000004
Found incumbent of value 0.000000 after 0.00 sec. (0.53 ticks)

Root node processing (before b&c):
  Real time             =    0.00 sec. (0.60 ticks)
Sequential b&c:
  Real time             =    0.00 sec. (0.00 ticks)
                          ------------
Total (root+branch&cut) =    0.00 sec. (0.60 ticks)
Version identifier: 22.1.0.0 | 2022-03-09 | 1a383f8ce
CPXPARAM_Threads                                 1
CPXPARAM_MIP_Strategy_VariableSelect             3
CPXPARAM_TimeLimit                               599.91525674499997
Tried aggregator 1 time.
MIP Presolve eliminated 329 rows and 1256 columns.
Reduced MIP has 1881 rows, 2512 columns, and 20608 nonzeros.
Reduced MIP has 2512 binaries, 0 generals, 0 SOSs, and 0 indicators.
Presolve time = 0.02 sec. (11.71 ticks)
Found incumbent of value 0.000000 after 0.05 sec. (33.07 ticks)

Root node processing (before b&c):
  Real time             =    0.05 sec. (33.20 ticks)
Sequential b&c:
  Real time             =    0.00 sec. (0.00 ticks)
                          ------------
Total (root+branch&cut) =    0.05 sec. (33.20 ticks)
Version identifier: 22.1.0.0 | 2022-03-09 | 1a383f8ce
CPXPARAM_Threads                                 1
CPXPARAM_MIP_Strategy_VariableSelect             3
CPXPARAM_TimeLimit                               599.84881169200003
Tried aggregator 1 time.
MIP Presolve eliminated 330 rows and 1260 columns.
Reduced MIP has 1887 rows, 2520 columns, and 20674 nonzeros.
Reduced MIP has 2520 binaries, 0 generals, 0 SOSs, and 0 indicators.
Presolve time = 0.02 sec. (11.74 ticks)
Found incumbent of value 0.000000 after 0.05 sec. (34.76 ticks)

Root node processing (before b&c):
  Real time             =    0.05 sec. (34.90 ticks)
Sequential b&c:
  Real time             =    0.00 sec. (0.00 ticks)
                          ------------
Total (root+branch&cut) =    0.05 sec. (34.90 ticks)
Primal:	315
Dual:	315
Status:	Optimal
Time:	0.217233
Sequence:
	1
	9
	4
	6
	9
	0
	4
	10
	4
	4
	1
	0
	9
	1
	4
	4
	9
	10
	0
	9
	6
	9
	0
	9
	6
	9
	9
	1
	4
	4
	1
	0
	1
	4
	9
	0
	5
	4
	1
	9
	9
	9
	4
	4
	9
	9
	1
	9
	9
	1
	9
	4
	9
	9
	8
	4
	9
	4
	1
	9
	6
	4
	9
	4
	9
	1
	0
	9
	9
	9
	4
	4
	9
	9
	4
	4
	9
	5
	4
	9
	0
	6
	9
	0
	4
	9
	1
	9
	4
	1
	9
	0
	9
	6
	4
	9
	1
	9
	1
	9
	4
	9
	9
	1
	9
	1
	9
	9
	9
	9
	1
	4
	0
	4
	4
	9
	9
	9
	5
	4
	9
	9
	6
	9
	4
	1
	9
	9
	9
	1
	4
	1
	4
	9
	0
	4
	4
	9
	9
	0
	1
	9
	0
	9
	4
	0
	4
	4
	1
	9
	9
	9
	6
	4
	9
	4
	0
	9
	4
	10
	9
	9
	9
	9
	0
	4
	4
	9
	4
	4
	9
	4
	9
	0
	9
	9
	9
	4
	6
	9
	1
	4
	6
	9
	1
	4
	1
	0
	9
	6
	4
	9
	9
	6
	4
	1
	9
	9
	1
	4
	4
	1
	9
	0
	9
	4
	5
	9
	9
	1
	4
	0
	9
	1
	9
	6
	4
	1
	0
	9
	9
	1
	4
	4
	0
	4
	9
	4
	9
	4
	1
	4
	9
	9
	6
	4
	9
	4
	4
	9
	4
	0
	9
	9
	9
	6
	4
	9
	4
	9
	1
	4
	4
	9
	4
	1
	4
	9
	5
	4
	0
	4
	4
	0
	4
	4
	0
	4
	9
	0
	1
	9
	4
	1
	4
	10
	4
	9
	4
	9
	0
	4
	4
	1
	4
	1
	8
	4
	9
	9
	4
	6
	9
	4
	4
	1
	4
	4
	1
	9
	1
	0
	9
	4
	1
	4
	1
	9
	1
	9
	4
	4
	1
	9
	0
